\ This file has been generated by DOcplex
\ ENCODING=ISO-8859-1
\Problem name: random_problem.lp

Minimize
 obj: - 672 x0 - 336 x1 + 374 x2 + 187 x3 + 370 x4 + 185 x5 + 56 x6 + 28 x7 + [
      1048 x0^2 + 1048 x0*x1 + 720 x0*x2 + 360 x0*x3 + 272 x0*x4 + 136 x0*x5
      + 688 x0*x6 + 344 x0*x7 + 262 x1^2 + 360 x1*x2 + 180 x1*x3 + 136 x1*x4
      + 68 x1*x5 + 344 x1*x6 + 172 x1*x7 + 600 x2^2 + 600 x2*x3 + 768 x2*x4
      + 384 x2*x5 + 400 x2*x6 + 200 x2*x7 + 150 x3^2 + 384 x3*x4 + 192 x3*x5
      + 200 x3*x6 + 100 x3*x7 + 960 x4^2 + 960 x4*x5 + 224 x4*x6 + 112 x4*x7
      + 240 x5^2 + 112 x5*x6 + 56 x5*x7 + 536 x6^2 + 536 x6*x7 + 134 x7^2 ]/2
Subject To
 c0: 2 x0 + x1 + 2 x2 + x3 + 2 x4 + x5 + 2 x6 + x7 = 3

Bounds
 0 <= x0 <= 1
 0 <= x1 <= 1
 0 <= x2 <= 1
 0 <= x3 <= 1
 0 <= x4 <= 1
 0 <= x5 <= 1
 0 <= x6 <= 1
 0 <= x7 <= 1

Binaries
 x0 x1 x2 x3 x4 x5 x6 x7
End
